09-routing/solutions/XSH-n20-k4-54.opt.sol
Route #1: 15 8 6 16 2 7
Route #2: 18 1 4 20 5 19
Route #3: 17 12 14 9
Route #4: 3 10 11 13
Cost 791
